min: c;

c = 3.20274459786682 * u4_t1_h1 + 3.88615252619014 * u4_t1_h2 + 3.51772597357577 * u4_t1_h3 + 3.31763025094723 * u4_t1_h4 + 3.31763025094723 * u4_t10_h4 + 3.13703638963475 * u4_t1_h5 + 3.13703638963475 * u4_t10_h5 + 3.60075061113977 * u4_t1_h6 + 3.60075061113977 * u4_t10_h6 + 3.99793918405622 * u4_t1_h7 + 3.99793918405622 * u4_t10_h7 + 5.69206469130384 * u4_t1_h8 + 5.69206469130384 * u4_t9_h8 + 5.69206469130384 * u4_t10_h8 + 4.4760088577552 * u4_t9_h9 + 4.4760088577552 * u4_t10_h9 + 4.99188957491298 * u4_t9_h10 + 4.99188957491298 * u4_t10_h10 + 3.93461903969397 * u4_t2_h11 + 3.93461903969397 * u4_t4_h11 + 3.93461903969397 * u4_t9_h11 + 3.93461903969397 * u4_t10_h11 + 6.13121850521712 * u4_t2_h12 + 6.13121850521712 * u4_t3_h12 + 6.13121850521712 * u4_t4_h12 + 6.13121850521712 * u4_t8_h12 + 6.13121850521712 * u4_t9_h12 + 6.13121850521712 * u4_t10_h12 + 4.37979848610741 * u4_t2_h13 + 4.37979848610741 * u4_t3_h13 + 4.37979848610741 * u4_t4_h13 + 4.37979848610741 * u4_t8_h13 + 4.37979848610741 * u4_t9_h13 + 5.90421083245576 * u4_t2_h14 + 5.90421083245576 * u4_t3_h14 + 5.90421083245576 * u4_t4_h14 + 5.90421083245576 * u4_t8_h14 + 5.90421083245576 * u4_t9_h14 + 5.88326405412993 * u4_t2_h15 + 5.88326405412993 * u4_t3_h15 + 5.88326405412993 * u4_t4_h15 + 5.88326405412993 * u4_t8_h15 + 5.88326405412993 * u4_t9_h15 + 5.9350735625453 * u4_t2_h16 + 5.9350735625453 * u4_t3_h16 + 5.9350735625453 * u4_t4_h16 + 5.9350735625453 * u4_t5_h16 + 5.9350735625453 * u4_t8_h16 + 5.9350735625453 * u4_t9_h16 + 6.0142838464235 * u4_t2_h17 + 6.0142838464235 * u4_t3_h17 + 6.0142838464235 * u4_t5_h17 + 6.0142838464235 * u4_t8_h17 + 6.0142838464235 * u4_t9_h17 + 6.13690149709776 * u4_t2_h18 + 6.13690149709776 * u4_t3_h18 + 6.13690149709776 * u4_t5_h18 + 6.13690149709776 * u4_t8_h18 + 6.13690149709776 * u4_t9_h18 + 5.40601004692321 * u4_t2_h19 + 5.40601004692321 * u4_t3_h19 + 5.40601004692321 * u4_t6_h19 + 5.40601004692321 * u4_t8_h19 + 5.40601004692321 * u4_t9_h19 + 5.24022862694901 * u4_t2_h20 + 5.24022862694901 * u4_t6_h20 + 5.24022862694901 * u4_t9_h20 + 5.71375423406457 * u4_t6_h21 + 5.64976474683623 * u4_t6_h22 + 5.64976474683623 * u4_t7_h22 + 5.18415407772079 * u4_t6_h23 + 5.18415407772079 * u4_t7_h23;
0 <= u4_t1_h1 <= 1;
0 <= u4_t1_h2 <= 1;
0 <= u4_t1_h3 <= 1;
0 <= u4_t1_h4 <= 1;
0 <= u4_t1_h5 <= 1;
0 <= u4_t1_h6 <= 1;
0 <= u4_t1_h7 <= 1;
0 <= u4_t1_h8 <= 1;
u4_t1_h1 + u4_t1_h2 + u4_t1_h3 + u4_t1_h4 + u4_t1_h5 + u4_t1_h6 + u4_t1_h7 + u4_t1_h8 = 1;
0 <= u4_t2_h11 <= 1;
0 <= u4_t2_h12 <= 1;
0 <= u4_t2_h13 <= 1;
0 <= u4_t2_h14 <= 1;
0 <= u4_t2_h15 <= 1;
0 <= u4_t2_h16 <= 1;
0 <= u4_t2_h17 <= 1;
0 <= u4_t2_h18 <= 1;
0 <= u4_t2_h19 <= 1;
0 <= u4_t2_h20 <= 1;
u4_t2_h11 + u4_t2_h12 + u4_t2_h13 + u4_t2_h14 + u4_t2_h15 + u4_t2_h16 + u4_t2_h17 + u4_t2_h18 + u4_t2_h19 + u4_t2_h20 = 2;
0 <= u4_t3_h12 <= 1;
0 <= u4_t3_h13 <= 1;
0 <= u4_t3_h14 <= 1;
0 <= u4_t3_h15 <= 1;
0 <= u4_t3_h16 <= 1;
0 <= u4_t3_h17 <= 1;
0 <= u4_t3_h18 <= 1;
0 <= u4_t3_h19 <= 1;
u4_t3_h12 + u4_t3_h13 + u4_t3_h14 + u4_t3_h15 + u4_t3_h16 + u4_t3_h17 + u4_t3_h18 + u4_t3_h19 = 3;
0 <= u4_t4_h11 <= 1;
0 <= u4_t4_h12 <= 1;
0 <= u4_t4_h13 <= 1;
0 <= u4_t4_h14 <= 1;
0 <= u4_t4_h15 <= 1;
0 <= u4_t4_h16 <= 1;
u4_t4_h11 + u4_t4_h12 + u4_t4_h13 + u4_t4_h14 + u4_t4_h15 + u4_t4_h16 = 3;
0 <= u4_t5_h16 <= 1;
0 <= u4_t5_h17 <= 1;
0 <= u4_t5_h18 <= 1;
u4_t5_h16 + u4_t5_h17 + u4_t5_h18 = 1;
0 <= u4_t6_h19 <= 1;
0 <= u4_t6_h20 <= 1;
0 <= u4_t6_h21 <= 1;
0 <= u4_t6_h22 <= 1;
0 <= u4_t6_h23 <= 1;
u4_t6_h19 + u4_t6_h20 + u4_t6_h21 + u4_t6_h22 + u4_t6_h23 = 3;
0 <= u4_t7_h22 <= 1;
0 <= u4_t7_h23 <= 1;
u4_t7_h22 + u4_t7_h23 = 1;
0 <= u4_t8_h12 <= 1;
0 <= u4_t8_h13 <= 1;
0 <= u4_t8_h14 <= 1;
0 <= u4_t8_h15 <= 1;
0 <= u4_t8_h16 <= 1;
0 <= u4_t8_h17 <= 1;
0 <= u4_t8_h18 <= 1;
0 <= u4_t8_h19 <= 1;
u4_t8_h12 + u4_t8_h13 + u4_t8_h14 + u4_t8_h15 + u4_t8_h16 + u4_t8_h17 + u4_t8_h18 + u4_t8_h19 = 2;
0 <= u4_t9_h8 <= 1;
0 <= u4_t9_h9 <= 1;
0 <= u4_t9_h10 <= 1;
0 <= u4_t9_h11 <= 1;
0 <= u4_t9_h12 <= 1;
0 <= u4_t9_h13 <= 1;
0 <= u4_t9_h14 <= 1;
0 <= u4_t9_h15 <= 1;
0 <= u4_t9_h16 <= 1;
0 <= u4_t9_h17 <= 1;
0 <= u4_t9_h18 <= 1;
0 <= u4_t9_h19 <= 1;
0 <= u4_t9_h20 <= 1;
u4_t9_h8 + u4_t9_h9 + u4_t9_h10 + u4_t9_h11 + u4_t9_h12 + u4_t9_h13 + u4_t9_h14 + u4_t9_h15 + u4_t9_h16 + u4_t9_h17 + u4_t9_h18 + u4_t9_h19 + u4_t9_h20 = 2;
0 <= u4_t10_h4 <= 1;
0 <= u4_t10_h5 <= 1;
0 <= u4_t10_h6 <= 1;
0 <= u4_t10_h7 <= 1;
0 <= u4_t10_h8 <= 1;
0 <= u4_t10_h9 <= 1;
0 <= u4_t10_h10 <= 1;
0 <= u4_t10_h11 <= 1;
0 <= u4_t10_h12 <= 1;
u4_t10_h4 + u4_t10_h5 + u4_t10_h6 + u4_t10_h7 + u4_t10_h8 + u4_t10_h9 + u4_t10_h10 + u4_t10_h11 + u4_t10_h12 = 2;
